1597334
33 57 88918
57 18 27906
18 10 28652
10 14 62052
14 44 62420
44 53 84806
53 37 6554
37 62 30446
62 39 8740
39 51 11004
51 35 8926
35 68 19070
68 8 34471
8 36 11459
36 15 14151
15 58 6904
58 9 1777
9 17 5356
17 27 1445
27 45 8214
45 65 16726
65 20 13332
20 47 12843
47 13 9114
13 54 13536
54 1 18207
1 24 15310
24 61 5437
61 3 12947
3 42 13084
42 12 4831
12 32 4813
32 56 1427
56 40 3489
40 5 3130
5 19 15574
19 49 8895
49 23 4353
23 60 7498
60 29 6419
29 25 9940
25 30 1249
30 41 5056
41 6 10602
6 64 32039
64 11 35955
11 66 13370
66 26 57991
26 55 61621
55 34 20835
34 46 36286
46 43 69394
43 7 52950
7 67 19183
67 38 15200
38 21 42598
21 63 32196
63 4 25841
4 48 7248
48 2 7938
2 16 21569
16 59 10880
59 50 29672
50 28 10810
28 31 65445
31 22 39447
22 52 46274
52 33 101509
